
Gurobi 9.1.2 (linux64, gurobi_cl) logging started Fri Jul 30 13:53:54 2021

Using license file /opt/gurobi/gurobi.lic
Set parameter TimeLimit to value 600
Set parameter Cuts to value 0
Set parameter LogFile to value 912-Cuts0-glass4-2.log
Set parameter Seed to value 2

Gurobi Optimizer version 9.1.2 build v9.1.2rc0 (linux64)
Copyright (c) 2021, Gurobi Optimization, LLC

Read MPS format model from file /nfs/models/mip/glass4.mps.bz2
Reading time = 0.00 seconds
glass4: 396 rows, 322 columns, 1815 nonzeros
Thread count: 4 physical cores, 8 logical processors, using up to 8 threads
Optimize a model with 396 rows, 322 columns and 1815 nonzeros
Model fingerprint: 0x0a9d9037
Variable types: 20 continuous, 302 integer (0 binary)
Coefficient statistics:
  Matrix range     [1e+00, 8e+06]
  Objective range  [1e+00, 1e+06]
  Bounds range     [1e+00, 8e+02]
  RHS range        [1e+00, 8e+06]
Presolve removed 6 rows and 6 columns
Presolve time: 0.00s
Presolved: 390 rows, 316 columns, 1803 nonzeros
Variable types: 19 continuous, 297 integer (297 binary)
Found heuristic solution: objective 3.133356e+09

Root relaxation: objective 8.000024e+08, 72 iterations, 0.00 seconds

    Nodes    |    Current Node    |     Objective Bounds      |     Work
 Expl Unexpl |  Obj  Depth IntInf | Incumbent    BestBd   Gap | It/Node Time

     0     0 8.0000e+08    0   72 3.1334e+09 8.0000e+08  74.5%     -    0s
H    0     0                    2.150017e+09 8.0000e+08  62.8%     -    0s
H    0     0                    2.100017e+09 8.0000e+08  61.9%     -    0s
     0     0 8.0000e+08    0   72 2.1000e+09 8.0000e+08  61.9%     -    0s
H    0     2                    2.000017e+09 8.0000e+08  60.0%     -    0s
     0     2 8.0000e+08    0   72 2.0000e+09 8.0000e+08  60.0%     -    0s
H  607  1132                    1.900016e+09 8.0000e+08  57.9%   2.4    0s
H 1292  1080                    1.860017e+09 8.0000e+08  57.0%   2.6    0s
H 1294  1080                    1.850016e+09 8.0000e+08  56.8%   2.6    0s
H 1296  1080                    1.850016e+09 8.0000e+08  56.8%   2.6    0s
H 1300  1028                    1.800016e+09 8.0000e+08  55.6%   2.6    0s
H 1605  1180                    1.800016e+09 8.0000e+08  55.6%   2.7    0s
H 3589  2635                    1.711126e+09 8.0000e+08  53.2%   3.3    0s
H11961  7335                    1.711126e+09 8.0000e+08  53.2%   3.3    1s
H11987  7323                    1.711122e+09 8.0000e+08  53.2%   3.3    1s
H13623  8347                    1.700015e+09 8.0000e+08  52.9%   3.3    1s
H21541 10969                    1.650015e+09 8.0000e+08  51.5%   3.3    1s
H25334 12679                    1.625014e+09 8.0001e+08  50.8%   3.4    2s
*26468 12203              78    1.583347e+09 8.0001e+08  49.5%   3.4    2s
*30385 12695              39    1.500014e+09 8.5001e+08  43.3%   3.4    2s
 104493 45051 infeasible   37      1.5000e+09 1.0000e+09  33.3%   3.6    5s
 239480 99315 1.1667e+09   47   24 1.5000e+09 1.0000e+09  33.3%   3.6   10s
*282924 108810              66    1.500013e+09 1.0600e+09  29.3%   3.6   12s
H353407 132894                    1.500013e+09 1.1000e+09  26.7%   3.6   14s
H353408 89955                    1.400013e+09 1.1000e+09  21.4%   3.6   14s
H353411 28653                    1.200013e+09 1.1000e+09  8.33%   3.6   14s
 354304 27341 infeasible   38      1.2000e+09 1.1000e+09  8.33%   3.6   15s

Explored 365257 nodes (1287290 simplex iterations) in 15.33 seconds
Thread count was 8 (of 8 available processors)

Solution count 10: 1.20001e+09 1.40001e+09 1.50001e+09 ... 1.71112e+09

Optimal solution found (tolerance 1.00e-04)
Best objective 1.200012600000e+09, best bound 1.200003400000e+09, gap 0.0008%
